CPXPARAM_Read_DataCheck                          1
Found incumbent of value 0.000000 after 0.00 sec. (2.56 ticks)
Tried aggregator 1 time.
MIP Presolve modified 1 coefficients.
Reduced MIP has 10033 rows, 100010 columns, and 500034 nonzeros.
Reduced MIP has 100010 binaries, 0 generals, 0 SOSs, and 0 indicators.
Presolve time = 0.27 sec. (175.14 ticks)
Tried aggregator 1 time.
Reduced MIP has 10033 rows, 100010 columns, and 500034 nonzeros.
Reduced MIP has 100010 binaries, 0 generals, 0 SOSs, and 0 indicators.
Presolve time = 0.39 sec. (212.50 ticks)
Probing time = 0.34 sec. (53.81 ticks)
Clique table members: 350077.
MIP emphasis: balance optimality and feasibility.
MIP search method: dynamic search.
Parallel mode: deterministic, using up to 4 threads.
Root relaxation solution time = 1.41 sec. (888.32 ticks)

        Nodes                                         Cuts/
   Node  Left     Objective  IInf  Best Integer    Best Bound    ItCnt     Gap

*     0+    0                            0.0000   619823.0000              --- 
*     0+    0                        29133.0000   619823.0000              --- 
      0     0   363684.3503    10    29133.0000   363684.3503       16     --- 
*     0+    0                       200887.0000   363684.3503            81.04%
      0     0   363660.5154    10   200887.0000 Cliques: 2608       52   27.99%
      0     0   363633.5517    10   200887.0000 Cliques: 2608       86   14.83%
      0     2   363633.5517    10   200887.0000   222913.5656       86   10.96%
Elapsed time = 228.08 sec. (88061.19 ticks, tree = 0.01 MB, solutions = 3)
      1     3   335944.5115     9   200887.0000   222913.5656     1551   10.96%
      2     3   323899.2126     8   200887.0000   222913.5656     2781   10.96%
      4     5   295618.3960     8   200887.0000   222913.5656     6483   10.96%
      6     6   294103.3103     9   200887.0000   222913.5656     8208   10.96%
      8     7   282064.3542     6   200887.0000   222913.5656    10503   10.96%
     10    10   270984.2687     7   200887.0000   222913.5656    18344   10.96%
     12    11   265632.4430     7   200887.0000   222913.5656    21214   10.96%
     13    12   266030.6518     5   200887.0000   222913.5656    23730   10.96%
     15    13   253427.4969     4   200887.0000   222913.5656    26443   10.96%
     19    19   235308.7700     3   200887.0000   222913.5656    47815   10.96%
Elapsed time = 233.83 sec. (92964.03 ticks, tree = 0.20 MB, solutions = 3)
     23    25   228214.6518     3   200887.0000   222913.5656    74083   10.96%
     25    22   208392.9187     2   200887.0000   222913.5656    64278   10.96%
     30    26   202089.3325     1   200887.0000   222913.5656    83382   10.96%
     49    31   239613.6142     8   200887.0000   222913.5656   124900   10.96%
     61    37   236287.5094     3   200887.0000   222913.5656   138110   10.96%
     69    40   223663.8200     2   200887.0000   222913.5656   146339   10.96%
     74    42        cutoff         200887.0000   222913.5656   162570   10.96%
     84    42   221574.6359     2   200887.0000   222913.5656   160005   10.96%
     93    51   203433.9132     1   200887.0000   222913.5656   193086   10.96%
    105    52   233415.6400     6   200887.0000   222913.5656   207271   10.96%
Elapsed time = 247.92 sec. (103800.51 ticks, tree = 0.79 MB, solutions = 3)
    118    60        cutoff         200887.0000   222913.5656   233470   10.96%
    128    58   228377.9405     4   200887.0000   222913.5656   229109   10.96%
    141    65   226464.4498     4   200887.0000   222913.5656   267826   10.96%
    149    67   205479.7640     6   200887.0000   222913.5656   280188   10.96%
    166    70        cutoff         200887.0000   222913.5656   296161   10.96%
    177    70   222399.3411     5   200887.0000   222913.5656   318512   10.96%
    189    72   221558.6160     2   200887.0000   222913.5656   303529   10.96%
    204    75   205072.9688     1   200887.0000   222913.5656   339033   10.96%
    222    77   201933.7100     2   200887.0000   222913.5656   352676   10.96%
    252    89   204883.9790     6   200887.0000   222913.5656   384849   10.96%
Elapsed time = 263.97 sec. (114202.43 ticks, tree = 1.42 MB, solutions = 3)
    271    84        cutoff         200887.0000   222913.5656   403655   10.96%
    291    77   202174.0612     5   200887.0000   222913.5656   422695   10.96%
    313    72        cutoff         200887.0000   222913.5656   427858   10.96%
    346    34        cutoff         200887.0000   222913.5656   458817   10.96%
    380    23        cutoff         200887.0000   213301.0180   463734    6.18%

Clique cuts applied:  5216

Root node processing (before b&c):
  Real time             =  227.89 sec. (87990.96 ticks)
Parallel b&c, 4 threads:
  Real time             =   44.25 sec. (31438.80 ticks)
  Sync time (average)   =    4.10 sec.
  Wait time (average)   =    0.04 sec.
                          ------------
Total (root+branch&cut) =  272.14 sec. (119429.77 ticks)
